;; sequence(s): A141478
;; terms: 64 256 640 1280 2240 3584 5376 7680 10560 14080 18304 23296 29120 35840 43520 52224 62016 72960 85120 98560
;; small program: loop(loop(loop(x + x, 2 + (2 + 2), y) + x, y, x), 1 + x, 0)
;; fast program: ((2 * (2 * ((loop((x * x) * x, 1, 2 + x) - x) div (1 + 2)))) * (2 + 2)) * 2
(set-logic UFNIA)
(define-fun divf ((a Int) (b Int)) Int (ite (< 0 b) (div a b) (div (- a) (- b))))
(declare-fun f2 (Int) Int)
(declare-fun g2 () Int)
(declare-fun h2 (Int Int) Int)
(declare-fun u2 (Int Int) Int)
(declare-fun v2 (Int Int) Int)
(declare-fun f1 (Int Int) Int)
(declare-fun g1 (Int Int) Int)
(declare-fun h1 (Int) Int)
(declare-fun u1 (Int Int) Int)
(declare-fun v1 (Int Int) Int)
(declare-fun f0 (Int Int) Int)
(declare-fun g0 (Int) Int)
(declare-fun h0 () Int)
(declare-fun u0 (Int Int) Int)
(declare-fun v0 (Int) Int)
(declare-fun small (Int) Int)
(declare-fun f3 (Int) Int)
(declare-fun g3 () Int)
(declare-fun h3 (Int) Int)
(declare-fun u3 (Int Int) Int)
(declare-fun v3 (Int) Int)
(declare-fun fast (Int) Int)
(assert (forall ((x Int)) (= (f2 x) (+ x x))))
(assert (= g2 (+ 2 (+ 2 2))))
(assert (forall ((x Int) (y Int)) (= (h2 x y) y)))
(assert (forall ((x Int) (y Int)) (= (u2 x y) (ite (<= x 0) y (f2 (u2 (- x 1) y))))))
(assert (forall ((x Int) (y Int)) (= (v2 x y) (u2 g2 (h2 x y)))))
(assert (forall ((x Int) (y Int)) (= (f1 x y) (+ (v2 x y) x))))
(assert (forall ((x Int) (y Int)) (= (g1 x y) y)))
(assert (forall ((x Int)) (= (h1 x) x)))
(assert (forall ((x Int) (y Int)) (= (u1 x y) (ite (<= x 0) y (f1 (u1 (- x 1) y) x)))))
(assert (forall ((x Int) (y Int)) (= (v1 x y) (u1 (g1 x y) (h1 x)))))
(assert (forall ((x Int) (y Int)) (= (f0 x y) (v1 x y))))
(assert (forall ((x Int)) (= (g0 x) (+ 1 x))))
(assert (= h0 0))
(assert (forall ((x Int) (y Int)) (= (u0 x y) (ite (<= x 0) y (f0 (u0 (- x 1) y) x)))))
(assert (forall ((x Int)) (= (v0 x) (u0 (g0 x) h0))))
(assert (forall ((x Int)) (= (small x) (v0 x))))
(assert (forall ((x Int)) (= (f3 x) (* (* x x) x))))
(assert (= g3 1))
(assert (forall ((x Int)) (= (h3 x) (+ 2 x))))
(assert (forall ((x Int) (y Int)) (= (u3 x y) (ite (<= x 0) y (f3 (u3 (- x 1) y))))))
(assert (forall ((x Int)) (= (v3 x) (u3 g3 (h3 x)))))
(assert (forall ((x Int)) (= (fast x) (* (* (* 2 (* 2 (divf (- (v3 x) x) (+ 1 2)))) (+ 2 2)) 2))))
(assert (exists ((c Int)) (and (>= c 0) (not (= (small c) (fast c))))))
(check-sat)
